(set-logic QF_S)
(set-option :strings-exp true)
(set-option :produce-models true)
(declare-fun sigmaStar_0 () String)
(declare-fun literal_6 () String)
(assert (= literal_6 "\x3c\x70\x20\x61\x6c\x69\x67\x6e\x3d\x22\x63\x65\x6e\x74\x65\x72\x22\x3e\x3c\x69\x6e\x70\x75\x74\x20\x74\x79\x70\x65\x3d\x22\x73\x75\x62\x6d\x69\x74\x22\x20\x6e\x61\x6d\x65\x3d\x22\x66\x61\x73\x74\x67\x22\x20\x76\x61\x6c\x75\x65\x3d\x22\x73\x61\x76\x65\x61\x6c\x6c\x66\x65\x65\x64\x62\x61\x63\x6b\x22\x20\x2f\x3e\x3c\x2f\x70\x3e"))
(assert (str.in.re literal_6 (re.++ (re.* re.allchar) (re.++ (str.to.re "\x5c\x3c\x53\x43\x52\x49\x50\x54") (re.* re.allchar)))))
(check-sat)
(get-model)
